groups = 16;
numShifts = 3;
demand = [| 5, 5, 5, 5, 5, 2, 0,
          | 5, 5, 5, 5, 5, 2, 0,
          | 3, 3, 3, 3, 2, 0, 3 |];
minShift = [2, 2, 2];
maxShift = [7, 6, 5];
minOff = 2;
maxOff = 4;
minOn = 3;
maxOn = 7;
forbidden = [{}, {1}, {1,2}];
forbidden3 = [|  |];